************************************************************************
file with basedata            : cn19_.bas
initial value random generator: 28916692
************************************************************************
projects                      :  1
jobs (incl. supersource/sink ):  18
horizon                       :  123
RESOURCES
  - renewable                 :  2   R
  - nonrenewable              :  1   N
  - doubly constrained        :  0   D
************************************************************************
PROJECT INFORMATION:
pronr.  #jobs rel.date duedate tardcost  MPM-Time
    1     16      0       19        6       19
************************************************************************
PRECEDENCE RELATIONS:
jobnr.    #modes  #successors   successors
   1        1          3           2   3   4
   2        3          3           5   7  10
   3        3          3           6   7  10
   4        3          2           6  13
   5        3          3           6   9  11
   6        3          1           8
   7        3          2           8  15
   8        3          2          12  17
   9        3          3          14  16  17
  10        3          2          12  13
  11        3          1          13
  12        3          1          16
  13        3          3          14  16  17
  14        3          1          15
  15        3          1          18
  16        3          1          18
  17        3          1          18
  18        1          0        
************************************************************************
REQUESTS/DURATIONS:
jobnr. mode duration  R 1  R 2  N 1
------------------------------------------------------------------------
  1      1     0       0    0    0
  2      1     6       7    0    9
         2    10       4    0    9
         3    10       0    7    0
  3      1     1      10    0    8
         2     3       9    0    0
         3    10       8    0    0
  4      1     1       5    0    9
         2     1       0    8    0
         3     4       0    7    0
  5      1     4       0    7    8
         2     4       7    0    8
         3    10       0    7    7
  6      1     2       0    8    9
         2     4       0    7    0
         3     6       3    0    0
  7      1     3       0    3    0
         2     3       9    0    0
         3     5       6    0    0
  8      1     4       0    3    5
         2     8       0    3    4
         3    10       9    0    0
  9      1     1       0    6    3
         2     1       2    0    3
         3     7       0    8    0
 10      1     1       0    2    0
         2     4       0    1    0
         3     9       8    0    0
 11      1     3       5    0    0
         2     7       3    0    0
         3    10       0    7    0
 12      1     2       2    0    7
         2     3       2    0    0
         3     6       1    0    7
 13      1     1       0    4    3
         2     4       0    2    0
         3     5       8    0    0
 14      1     4       0    5    0
         2     4       0    3    4
         3     5       1    0    1
 15      1     1       0    6    7
         2     2       0    6    5
         3     9       0    4    4
 16      1     1       8    0    8
         2     3       6    0    7
         3     7       0    5    0
 17      1     2       7    0    5
         2     3       5    0    5
         3    10       3    0    0
 18      1     0       0    0    0
************************************************************************
RESOURCEAVAILABILITIES:
  R 1  R 2  N 1
   12    9   48
************************************************************************
